/*********************************************
 * OPL 12.7.1.0 Data
 * Author: Guilherme Chagas
 * Creation Date: 29/08/2017 at 16:46:43
 *********************************************/

n = 7;

a = [ [0, 1, 1, 0, 0, 0, 0]
	  [1, 0, 1, 0, 0, 0, 0]
	  [1, 1, 0, 1, 0, 0, 0]
	  [0, 0, 1, 0, 1, 1, 1]
	  [0, 0, 0, 1, 0, 0, 0]
	  [0, 0, 0, 1, 0, 0, 1]
	  [0, 0, 0, 1, 0, 1, 0] ];